Minimize
  obj: x0 + x1 + x2 + x3 + x4

Subject To
  c0: x1 + x2 + x3 + x4 = 28
  c1: x0 + x1 + x2 + x4 = 22
  c2: x0 + x1 + x3 = 13
  c3: x2 + x4 = 17
  c4: x1 + x2 + x3 + x4 = 28
  c5: x0 + x2 + x3 = 23
  c6: x0 + x1 + x2 + x4 = 22

Bounds
  x0 >= 0
  x1 >= 0
  x2 >= 0
  x3 >= 0
  x4 >= 0

Generals
  x0 x1 x2 x3 x4

End
